#variable temperature    equal 300      # Kelvin
#variable pressure       equal 0        # atmospheres
#variable dt             equal 1        # fs
#variable ih             equal 107 	    # initial high of the indenter, in Angs
#variable ib             equal 107      # initial high of the indenters in basis, in Angs
#variable id             equal 100      # total indented distance, in Angs
#variable vel            equal 0.00005 	# velocity of indentation, in Angs/fs, 10 m/s
#variable R              equal 30.0     # cylinder radius of indenter in Angs
#variable K              equal 10.0     # force const for indenter (force/distance^2)
#variable t_hold         equal 300000   # holding timesteps

group filml subtract bord fix-bord      # Thermostated atoms excluding fixed atoms
group film subtract all bord            # Central atoms not Thermostated
group mob subtract all fix-bord         # Mobile atoms can move

variable    tdamp   equal 100*${dt}
variable    pdamp   equal 1000*${dt}
variable    xcm     equal xcm(all,x)
variable    ycm     equal xcm(all,y)
variable    zcm     equal xcm(all,z)
variable    trun    equal floor(${id}/(${vel}*${dt})) # Total indentation timesteps.	
variable    tdump   equal floor(1.0/(${vel}*${dt}))  # Dump indentation every this timesteps.
variable    z1      equal vdisplace(${ih},-${vel}) # initial height indentation
variable    z1_min  equal ${ih}-${id} # final height of indentation, in Angs
variable    z2      equal vdisplace(${z1_min},${vel}) # final height of indentation, in Angs
thermo          1000
thermo_style    custom step temp ke pe etotal press lx ly lz vol
thermo_modify   lost warn norm yes lost/bond warn
timestep        ${dt} 

# ------------- Energy minimization
min_style cg
fix BoxRelax all box/relax x 0.0 y 0.0 vmax 0.01 nreset 10 fixedpoint ${xcm} ${ycm} ${zcm}
minimize 1.0e-25 1.0e-25 100000 1000000
write_dump all custom dump.min id mol type x y z
unfix          BoxRelax

# ------------- Equilibration NPT on all sample
velocity        all create ${temperature} 1938072 dist gaussian 
fix             1 all nph x 0.0 ${pxatm} ${pdamp} y 0.0 ${pyatm} ${pdamp} fixedpoint ${xcm} ${ycm} ${zcm}
fix             langevin all langevin ${temperature} ${temperature} ${tdamp} 32258453 zero yes
dump            1 all custom 10000 dump.npt.* id mol type x y z
dump_modify     1 element ${ele_string}
run             ${trelax}
unfix           1
undump          1
unfix           langevin

compute         nkeatom film ke/atom
compute         keatom film reduce ave c_nkeatom
compute         npeatom film pe/atom
compute         peatom film reduce ave c_npeatom
variable        teatom    equal c_keatom+c_peatom 

fix             3 fix-bord setforce NULL NULL 0.0
velocity        fix-bord set NULL NULL 0.0

# ------------- Equilibration 1 on group mob
reset_timestep  0
velocity        all create ${temperature} 1938072 dist gaussian #mom yes rot no
fix             1 all nve
fix             langevin mob langevin ${temperature} ${temperature} ${tdamp} 32258453 zero yes
dump            1 all custom 10000 dump.nve1.* id mol type x y z
run             ${trelax}

unfix           1
undump          1
unfix           langevin

#--------------- Equilibration 2 on group film1
compute	        central film temp  # temp controllers 
dump            1 all custom 10000 dump.nve2.* id mol type x y z #vx vy vz 
fix             1 all nve
fix             2 bord langevin ${temperature} ${temperature} ${tdamp} 32258453 zero yes
thermo_modify   temp central lost warn norm yes lost/bond warn
run             ${trelax}
undump          1


reset_timestep  0
compute         1 all stress/atom NULL virial
variable        hmax	equal bound(film, zmax)
variable        xlo     equal xlo
variable        xhi     equal xhi
variable        xI      equal (xlo+xhi)/2
print           "hmax = ${hmax}"
print           "xI = ${xI}; xlo = ${xlo}; xhi = ${xhi}"

#---------------- 3PF TEST
dump            1 all custom ${tdump} dump.indent.* id mol type x y z 
fix             4 all indent $K cylinder y ${xI} v_z1 $R units box 
fix             5 all ave/time 2 100 1000 v_z1 f_4 f_4[1] f_4[2] f_4[3] file temp.indent off 1
thermo_style    custom step temp c_keatom c_peatom v_teatom press f_4[1] f_4[2] f_4[3]

run             ${trun}
undump          1
unfix           4
unfix           5

#---------------- Holding the indenter
#dump            1 all custom ${tdump} dump.hold.* id mol type x y z 
#fix             4 all indent $K cylinder y ${xI} ${z1_min} $R units box
#fix             5 all ave/time 2 10 100 v_z1 f_4 f_4[1] f_4[2] f_4[3] file temp.hold off 1
#run             ${trelax} 
#undump          1
#unfix           4
#unfix           5
#
##---------------- Removing the indenter
#dump            1 all custom ${tdump} dump.remove.* id mol type x y z 
#fix             4 all indent $K cylinder y ${xI} v_z2 $R units box 
#fix             5 all ave/time 2 10 100 v_z2 f_4 f_4[1] f_4[2] f_4[3] file temp.remove off 1
#run             ${trun}
#undump          1
#unfix           4
#unfix           5

######################################
# SIMULATION DONE
